; benchmark generated from python API
(set-info :status unknown)
(declare-fun x_days () (_ BitVec 32))
(assert
 (bvsle (_ bv4294930771 32) x_days))
(assert
 (bvsge (_ bv36523 32) x_days))
(assert
 (bvsge x_days (_ bv7245 32)))
(assert
 (bvsle x_days (_ bv7303 32)))
(assert
 (let ((?x3030 (bvadd x_days (_ bv730179 32))))
(let ((?x4510 (bvsmod ?x3030 (_ bv146097 32))))
(let ((?x1298 (bvsdiv ?x4510 (_ bv36524 32))))
(let ((?x5687 (ite (bvsle (_ bv4 32) ?x1298) (_ bv3 32) ?x1298)))
(let ((?x4104 (bvsub ?x4510 (bvmul ?x5687 (_ bv36524 32)))))
(let ((?x5068 (bvsmod ?x4104 (_ bv1461 32))))
(let ((?x568 (bvsdiv ?x5068 (_ bv365 32))))
(let ((?x2767 (ite (bvsle (_ bv4 32) ?x568) (_ bv3 32) ?x568)))
(let ((?x25754 (bvadd (bvadd (bvmul (bvsdiv ?x3030 (_ bv146097 32)) (_ bv400 32)) (bvmul ?x5687 (_ bv100 32))) (bvmul (bvsdiv ?x4104 (_ bv1461 32)) (_ bv4 32)))))
(let ((?x731 (bvadd (bvadd ?x25754 ?x2767) (_ bv1 32))))
(let (($x1400 (or (and (= (bvsmod ?x731 (_ bv4 32)) (_ bv0 32)) (and (distinct (bvsmod ?x731 (_ bv100 32)) (_ bv0 32)) true)) (= (bvsmod ?x731 (_ bv400 32)) (_ bv0 32)))))
(let ((?x2685 (bvsub ?x5068 (bvmul ?x2767 (_ bv365 32)))))
(let ((?x909 (ite $x1400 (_ bv31 32) (_ bv31 32))))
(let (($x905 (bvsge ?x2685 ?x909)))
(let ((?x3265 (ite $x905 (bvadd (bvsub ?x2685 ?x909) (_ bv1 32)) (bvadd (bvsub ?x2685 (ite $x1400 (_ bv0 32) (_ bv0 32))) (_ bv1 32)))))
(let ((?x3940 (ite $x1400 (_ bv60 32) (_ bv59 32))))
(let (($x2419 (bvsge ?x2685 ?x3940)))
(let ((?x3132 (ite $x1400 (_ bv91 32) (_ bv90 32))))
(let (($x588 (bvsge ?x2685 ?x3132)))
(let ((?x4212 (ite $x588 (bvadd (bvsub ?x2685 ?x3132) (_ bv1 32)) (ite $x2419 (bvadd (bvsub ?x2685 ?x3940) (_ bv1 32)) ?x3265))))
(let ((?x619 (ite $x1400 (_ bv121 32) (_ bv120 32))))
(let (($x6801 (bvsge ?x2685 ?x619)))
(let ((?x713 (ite $x1400 (_ bv152 32) (_ bv151 32))))
(let (($x2461 (bvsge ?x2685 ?x713)))
(let ((?x2930 (ite $x2461 (bvadd (bvsub ?x2685 ?x713) (_ bv1 32)) (ite $x6801 (bvadd (bvsub ?x2685 ?x619) (_ bv1 32)) ?x4212))))
(let ((?x4959 (ite $x1400 (_ bv182 32) (_ bv181 32))))
(let (($x2702 (bvsge ?x2685 ?x4959)))
(let ((?x1416 (ite $x1400 (_ bv213 32) (_ bv212 32))))
(let (($x6890 (bvsge ?x2685 ?x1416)))
(let ((?x6819 (ite $x6890 (bvadd (bvsub ?x2685 ?x1416) (_ bv1 32)) (ite $x2702 (bvadd (bvsub ?x2685 ?x4959) (_ bv1 32)) ?x2930))))
(let ((?x2099 (ite $x1400 (_ bv244 32) (_ bv243 32))))
(let (($x2268 (bvsge ?x2685 ?x2099)))
(let ((?x3306 (ite $x1400 (_ bv274 32) (_ bv273 32))))
(let (($x5114 (bvsge ?x2685 ?x3306)))
(let ((?x3565 (ite $x5114 (bvadd (bvsub ?x2685 ?x3306) (_ bv1 32)) (ite $x2268 (bvadd (bvsub ?x2685 ?x2099) (_ bv1 32)) ?x6819))))
(let ((?x602 (ite $x1400 (_ bv305 32) (_ bv304 32))))
(let (($x2457 (bvsge ?x2685 ?x602)))
(let ((?x4337 (ite $x1400 (_ bv335 32) (_ bv334 32))))
(let (($x716 (bvsge ?x2685 ?x4337)))
(let ((?x4110 (ite $x716 (bvadd (bvsub ?x2685 ?x4337) (_ bv1 32)) (ite $x2457 (bvadd (bvsub ?x2685 ?x602) (_ bv1 32)) ?x3565))))
(let ((?x1429 (ite $x2461 (_ bv6 32) (ite $x6801 (_ bv5 32) (ite $x588 (_ bv4 32) (ite $x2419 (_ bv3 32) (ite $x905 (_ bv2 32) (_ bv1 32))))))))
(let ((?x3944 (ite $x2457 (_ bv11 32) (ite $x5114 (_ bv10 32) (ite $x2268 (_ bv9 32) (ite $x6890 (_ bv8 32) (ite $x2702 (_ bv7 32) ?x1429)))))))
(let ((?x25777 (bvadd (ite $x716 (_ bv12 32) ?x3944) (bvadd (bvmul (_ bv1 32) (_ bv12 32)) (_ bv0 32)))))
(let ((?x5257 (bvsub (ite (bvuge ?x25777 (_ bv2147483648 32)) (bvsub ?x25777 (_ bv0 32)) ?x25777) (_ bv1 32))))
(let ((?x3455 (bvsmod ?x5257 (_ bv12 32))))
(let ((?x2980 (bvadd ?x3455 (_ bv1 32))))
(let ((?x4347 (ite (or (= ?x2980 (_ bv4 32)) (= ?x2980 (_ bv6 32)) (= ?x2980 (_ bv9 32)) (= ?x2980 (_ bv11 32))) (_ bv30 32) (_ bv31 32))))
(let ((?x4531 (bvsdiv ?x5257 (_ bv12 32))))
(let ((?x3483 (ite (and (bvuge ?x5257 (_ bv2147483648 32)) (and (distinct (_ bv0 32) ?x3455) true)) (bvsub ?x4531 (_ bv1 32)) ?x4531)))
(let ((?x2621 (bvadd ?x731 (bvadd (_ bv0 32) ?x3483))))
(let (($x1252 (or (and (= (bvsmod ?x2621 (_ bv4 32)) (_ bv0 32)) (and (distinct (bvsmod ?x2621 (_ bv100 32)) (_ bv0 32)) true)) (= (bvsmod ?x2621 (_ bv400 32)) (_ bv0 32)))))
(let ((?x1141 (ite (= ?x2980 (_ bv2 32)) (ite $x1252 (_ bv29 32) (_ bv28 32)) ?x4347)))
(let ((?x758 (ite (bvsgt (_ bv1 32) ?x4110) (_ bv1 32) (ite (bvsgt ?x4110 ?x1141) ?x1141 ?x4110))))
(let ((?x6697 (ite (bvsgt (_ bv1 32) ?x758) (_ bv1 32) (ite (bvsgt ?x758 ?x1141) ?x1141 ?x758))))
(let ((?x5741 (ite (= (_ bv2 32) ?x2980) (ite $x1252 (_ bv31 32) (_ bv31 32)) (ite (= (_ bv1 32) ?x2980) (ite $x1252 (_ bv0 32) (_ bv0 32)) (_ bv0 32)))))
(let ((?x4606 (ite (= (_ bv4 32) ?x2980) (ite $x1252 (_ bv91 32) (_ bv90 32)) (ite (= (_ bv3 32) ?x2980) (ite $x1252 (_ bv60 32) (_ bv59 32)) ?x5741))))
(let ((?x6094 (ite (= (_ bv6 32) ?x2980) (ite $x1252 (_ bv152 32) (_ bv151 32)) (ite (= (_ bv5 32) ?x2980) (ite $x1252 (_ bv121 32) (_ bv120 32)) ?x4606))))
(let ((?x2458 (ite (= (_ bv8 32) ?x2980) (ite $x1252 (_ bv213 32) (_ bv212 32)) (ite (= (_ bv7 32) ?x2980) (ite $x1252 (_ bv182 32) (_ bv181 32)) ?x6094))))
(let ((?x2658 (ite (= (_ bv10 32) ?x2980) (ite $x1252 (_ bv274 32) (_ bv273 32)) (ite (= (_ bv9 32) ?x2980) (ite $x1252 (_ bv244 32) (_ bv243 32)) ?x2458))))
(let ((?x405 (ite (= (_ bv12 32) ?x2980) (ite $x1252 (_ bv335 32) (_ bv334 32)) (ite (= (_ bv11 32) ?x2980) (ite $x1252 (_ bv305 32) (_ bv304 32)) ?x2658))))
(let ((?x4465 (bvadd (bvmul (_ bv365 32) (bvsub ?x2621 (_ bv1 32))) (bvsdiv (bvsub ?x2621 (_ bv1 32)) (_ bv4 32)))))
(let ((?x2330 (bvadd (bvsub ?x4465 (bvsdiv (bvsub ?x2621 (_ bv1 32)) (_ bv100 32))) (bvsdiv (bvsub ?x2621 (_ bv1 32)) (_ bv400 32)))))
(let ((?x1819 (bvadd (bvadd (bvsub (bvadd (bvadd ?x2330 ?x405) (bvsub ?x6697 (_ bv1 32))) (_ bv730179 32)) (_ bv0 32)) (_ bv730179 32))))
(let ((?x1425 (bvsmod ?x1819 (_ bv146097 32))))
(let ((?x1285 (bvsdiv ?x1425 (_ bv36524 32))))
(let ((?x3271 (ite (bvsle (_ bv4 32) ?x1285) (_ bv3 32) ?x1285)))
(let ((?x6743 (bvsub ?x1425 (bvmul ?x3271 (_ bv36524 32)))))
(let ((?x39182 (bvsmod ?x6743 (_ bv1461 32))))
(let ((?x4239 (bvsdiv ?x39182 (_ bv365 32))))
(let ((?x1231 (ite (bvsle (_ bv4 32) ?x4239) (_ bv3 32) ?x4239)))
(let ((?x2615 (bvadd (bvadd (bvmul (bvsdiv ?x1819 (_ bv146097 32)) (_ bv400 32)) (bvmul ?x3271 (_ bv100 32))) (bvmul (bvsdiv ?x6743 (_ bv1461 32)) (_ bv4 32)))))
(let ((?x3134 (bvadd (bvadd ?x2615 ?x1231) (_ bv1 32))))
(let (($x4799 (or (and (= (bvsmod ?x3134 (_ bv4 32)) (_ bv0 32)) (and (distinct (bvsmod ?x3134 (_ bv100 32)) (_ bv0 32)) true)) (= (bvsmod ?x3134 (_ bv400 32)) (_ bv0 32)))))
(let ((?x33122 (bvsub ?x39182 (bvmul ?x1231 (_ bv365 32)))))
(let ((?x511 (ite $x4799 (_ bv31 32) (_ bv31 32))))
(let (($x1994 (bvsge ?x33122 ?x511)))
(let ((?x2991 (ite $x1994 (bvadd (bvsub ?x33122 ?x511) (_ bv1 32)) (bvadd (bvsub ?x33122 (ite $x4799 (_ bv0 32) (_ bv0 32))) (_ bv1 32)))))
(let ((?x3190 (ite $x4799 (_ bv60 32) (_ bv59 32))))
(let (($x2218 (bvsge ?x33122 ?x3190)))
(let ((?x830 (ite $x4799 (_ bv91 32) (_ bv90 32))))
(let (($x3167 (bvsge ?x33122 ?x830)))
(let ((?x3078 (ite $x3167 (bvadd (bvsub ?x33122 ?x830) (_ bv1 32)) (ite $x2218 (bvadd (bvsub ?x33122 ?x3190) (_ bv1 32)) ?x2991))))
(let ((?x5590 (ite $x4799 (_ bv121 32) (_ bv120 32))))
(let (($x1268 (bvsge ?x33122 ?x5590)))
(let ((?x6671 (ite $x4799 (_ bv152 32) (_ bv151 32))))
(let (($x3950 (bvsge ?x33122 ?x6671)))
(let ((?x439 (ite $x3950 (bvadd (bvsub ?x33122 ?x6671) (_ bv1 32)) (ite $x1268 (bvadd (bvsub ?x33122 ?x5590) (_ bv1 32)) ?x3078))))
(let ((?x3493 (ite $x4799 (_ bv182 32) (_ bv181 32))))
(let (($x4108 (bvsge ?x33122 ?x3493)))
(let ((?x3829 (ite $x4799 (_ bv213 32) (_ bv212 32))))
(let (($x514 (bvsge ?x33122 ?x3829)))
(let ((?x3481 (ite $x514 (bvadd (bvsub ?x33122 ?x3829) (_ bv1 32)) (ite $x4108 (bvadd (bvsub ?x33122 ?x3493) (_ bv1 32)) ?x439))))
(let ((?x3601 (ite $x4799 (_ bv244 32) (_ bv243 32))))
(let (($x5343 (bvsge ?x33122 ?x3601)))
(let ((?x6278 (ite $x4799 (_ bv274 32) (_ bv273 32))))
(let (($x3815 (bvsge ?x33122 ?x6278)))
(let ((?x3723 (ite $x3815 (bvadd (bvsub ?x33122 ?x6278) (_ bv1 32)) (ite $x5343 (bvadd (bvsub ?x33122 ?x3601) (_ bv1 32)) ?x3481))))
(let ((?x2355 (ite $x4799 (_ bv305 32) (_ bv304 32))))
(let (($x1114 (bvsge ?x33122 ?x2355)))
(let ((?x3249 (ite $x4799 (_ bv335 32) (_ bv334 32))))
(let (($x25801 (bvsge ?x33122 ?x3249)))
(let ((?x4443 (ite $x25801 (bvadd (bvsub ?x33122 ?x3249) (_ bv1 32)) (ite $x1114 (bvadd (bvsub ?x33122 ?x2355) (_ bv1 32)) ?x3723))))
(let (($x983 (= (_ bv0 32) (_ bv0 32))))
(let (($x28621 (and (= (bvsmod (ite $x983 ?x2621 ?x3134) (_ bv4 32)) (_ bv0 32)) (and (distinct (bvsmod (ite $x983 ?x2621 ?x3134) (_ bv100 32)) (_ bv0 32)) true))))
(let (($x41314 (or $x28621 (= (bvsmod (ite $x983 ?x2621 ?x3134) (_ bv400 32)) (_ bv0 32)))))
(let ((?x25768 (ite $x3950 (_ bv6 32) (ite $x1268 (_ bv5 32) (ite $x3167 (_ bv4 32) (ite $x2218 (_ bv3 32) (ite $x1994 (_ bv2 32) (_ bv1 32))))))))
(let ((?x4451 (ite $x1114 (_ bv11 32) (ite $x3815 (_ bv10 32) (ite $x5343 (_ bv9 32) (ite $x514 (_ bv8 32) (ite $x4108 (_ bv7 32) ?x25768)))))))
(let ((?x2022 (ite $x983 ?x2980 (ite $x25801 (_ bv12 32) ?x4451))))
(let ((?x21305 (ite (= (_ bv2 32) ?x2022) (ite $x41314 (_ bv31 32) (_ bv31 32)) (ite (= (_ bv1 32) ?x2022) (ite $x41314 (_ bv0 32) (_ bv0 32)) (_ bv0 32)))))
(let ((?x404 (ite (= (_ bv4 32) ?x2022) (ite $x41314 (_ bv91 32) (_ bv90 32)) (ite (= (_ bv3 32) ?x2022) (ite $x41314 (_ bv60 32) (_ bv59 32)) ?x21305))))
(let ((?x29875 (ite (= (_ bv6 32) ?x2022) (ite $x41314 (_ bv152 32) (_ bv151 32)) (ite (= (_ bv5 32) ?x2022) (ite $x41314 (_ bv121 32) (_ bv120 32)) ?x404))))
(let ((?x40155 (ite (= (_ bv8 32) ?x2022) (ite $x41314 (_ bv213 32) (_ bv212 32)) (ite (= (_ bv7 32) ?x2022) (ite $x41314 (_ bv182 32) (_ bv181 32)) ?x29875))))
(let ((?x39554 (ite (= (_ bv10 32) ?x2022) (ite $x41314 (_ bv274 32) (_ bv273 32)) (ite (= (_ bv9 32) ?x2022) (ite $x41314 (_ bv244 32) (_ bv243 32)) ?x40155))))
(let ((?x21250 (ite (= (_ bv12 32) ?x2022) (ite $x41314 (_ bv335 32) (_ bv334 32)) (ite (= (_ bv11 32) ?x2022) (ite $x41314 (_ bv305 32) (_ bv304 32)) ?x39554))))
(let ((?x624 (bvadd (bvmul (_ bv365 32) (bvsub (ite $x983 ?x2621 ?x3134) (_ bv1 32))) (bvsdiv (bvsub (ite $x983 ?x2621 ?x3134) (_ bv1 32)) (_ bv4 32)))))
(let ((?x1479 (bvadd (bvsub ?x624 (bvsdiv (bvsub (ite $x983 ?x2621 ?x3134) (_ bv1 32)) (_ bv100 32))) (bvsdiv (bvsub (ite $x983 ?x2621 ?x3134) (_ bv1 32)) (_ bv400 32)))))
(let ((?x26717 (bvsub (bvadd (bvadd ?x1479 ?x21250) (bvsub (ite $x983 ?x6697 ?x4443) (_ bv1 32))) (_ bv730179 32))))
(not (= ?x26717 (bvadd x_days (_ bv365 32))))))))))))))))))))))))))))))))))))))))))))))))))))))))))))))))))))))))))))))))))))))))))))))))))))))))))))))))))))))))))
(check-sat)
